42
0
79
6
85
8
48
68
11
65
77
15
10
39
74
57
98
61
19
87
67
59
27
62
96
95
40
21
17
72
60
64
92
25
55
16
71
5
35
52
50
54
13
82
26
51
2
32
28
73
36
14
94
45
81
83
90
9
58
69
53
47
20
86
91
84
56
88
23
7
75
80
49
29
78
33
31
38
4
70
93
41
30
22
66
63
12
34
76
46
99
3
18
1
89
97
43
44
24
37
